param n := 60;
param c := 10000
param : V : p w :=
   0	  92	 379
   1	  24	 293
   2	  97	 328
   3	  65	 470
   4	  16	 251
   5	  68	 279
   6	  36	 411
   7	  30	 253
   8	   9	 336
   9	  99	 414
  10	  96	 276
  11	  45	 310
  12	  92	 418
  13	  33	 286
  14	  23	 296
  15	   5	 378
  16	  30	 296
  17	  29	 326
  18	  29	 428
  19	  27	 281
  20	  65	 291
  21	  71	 455
  22	  98	 264
  23	  53	 281
  24	  41	 494
  25	  56	 252
  26	  31	 254
  27	  15	 478
  28	  42	 258
  29	  17	 264
  30	  47	 409
  31	  15	 287
  32	  49	 304
  33	  20	 425
  34	  66	 256
  35	  56	 319
  36	  68	 402
  37	  22	 252
  38	  18	 346
  39	  65	 403
  40	  10	 283
  41	 100	 314
  42	  96	 401
  43	   9	 284
  44	  47	 315
  45	  66	 434
  46	  38	 282
  47	  99	 284
  48	   2	 496
  49	  88	 251
  50	  92	 253
  51	  58	 491
  52	  76	 253
  53	  41	 256
  54	  21	 498
  55	   5	 250
  56	  74	 252
  57	   5	 379
  58	  67	 264
  59	  60	 357
;

set E :=
   0	   4
   0	   5
   0	   7
   0	   9
   0	  10
   0	  14
   0	  15
   0	  22
   0	  25
   0	  28
   0	  29
   0	  36
   0	  38
   0	  39
   0	  46
   0	  51
   0	  53
   0	  54
   0	  55
   0	  56
   0	  58
   1	   2
   1	  12
   1	  15
   1	  18
   1	  22
   1	  23
   1	  27
   1	  29
   1	  34
   1	  46
   1	  47
   1	  49
   1	  50
   1	  53
   1	  56
   2	   5
   2	  12
   2	  13
   2	  16
   2	  20
   2	  21
   2	  22
   2	  26
   2	  27
   2	  28
   2	  33
   2	  34
   2	  35
   2	  37
   2	  41
   2	  43
   2	  47
   2	  48
   2	  49
   2	  50
   2	  53
   2	  55
   2	  56
   2	  57
   2	  59
   3	   6
   3	   7
   3	   9
   3	  12
   3	  16
   3	  21
   3	  23
   3	  29
   3	  30
   3	  35
   3	  38
   3	  41
   3	  42
   3	  43
   3	  44
   3	  46
   3	  47
   3	  54
   4	   6
   4	   8
   4	  10
   4	  12
   4	  15
   4	  26
   4	  32
   4	  34
   4	  42
   4	  43
   4	  44
   4	  46
   4	  48
   4	  49
   4	  51
   4	  56
   4	  57
   4	  58
   5	  10
   5	  17
   5	  18
   5	  21
   5	  24
   5	  31
   5	  32
   5	  43
   5	  44
   5	  45
   5	  47
   5	  48
   5	  52
   5	  54
   5	  58
   5	  59
   6	  10
   6	  11
   6	  12
   6	  14
   6	  16
   6	  22
   6	  23
   6	  24
   6	  26
   6	  31
   6	  32
   6	  35
   6	  39
   6	  42
   6	  51
   6	  52
   6	  55
   6	  57
   6	  58
   7	  11
   7	  12
   7	  17
   7	  19
   7	  22
   7	  23
   7	  26
   7	  27
   7	  36
   7	  37
   7	  38
   7	  41
   7	  44
   7	  45
   7	  46
   7	  48
   7	  49
   7	  50
   7	  56
   8	  11
   8	  12
   8	  20
   8	  25
   8	  26
   8	  27
   8	  33
   8	  35
   8	  37
   8	  39
   8	  42
   8	  43
   8	  45
   8	  46
   8	  48
   8	  49
   8	  52
   8	  59
   9	  13
   9	  14
   9	  16
   9	  17
   9	  18
   9	  20
   9	  21
   9	  29
   9	  32
   9	  40
   9	  43
   9	  44
   9	  45
   9	  46
   9	  50
   9	  52
   9	  53
   9	  56
   9	  57
  10	  14
  10	  17
  10	  18
  10	  19
  10	  23
  10	  24
  10	  29
  10	  31
  10	  36
  10	  37
  10	  45
  10	  46
  10	  48
  10	  53
  10	  55
  10	  58
  10	  59
  11	  18
  11	  20
  11	  22
  11	  23
  11	  24
  11	  31
  11	  33
  11	  36
  11	  38
  11	  39
  11	  41
  11	  42
  11	  43
  11	  49
  11	  50
  11	  59
  12	  13
  12	  18
  12	  19
  12	  20
  12	  27
  12	  28
  12	  30
  12	  41
  12	  47
  12	  54
  12	  56
  12	  58
  12	  59
  13	  17
  13	  19
  13	  20
  13	  23
  13	  25
  13	  27
  13	  30
  13	  32
  13	  37
  13	  43
  13	  46
  13	  49
  13	  50
  13	  51
  13	  53
  13	  55
  14	  18
  14	  23
  14	  24
  14	  28
  14	  33
  14	  34
  14	  41
  14	  46
  14	  49
  14	  51
  14	  53
  14	  54
  14	  59
  15	  20
  15	  21
  15	  26
  15	  28
  15	  32
  15	  37
  15	  39
  15	  40
  15	  44
  15	  45
  15	  50
  15	  54
  15	  59
  16	  19
  16	  20
  16	  23
  16	  28
  16	  32
  16	  41
  16	  45
  16	  48
  16	  54
  16	  55
  17	  20
  17	  24
  17	  28
  17	  29
  17	  30
  17	  34
  17	  36
  17	  37
  17	  39
  17	  45
  17	  47
  17	  48
  17	  53
  17	  54
  18	  23
  18	  24
  18	  31
  18	  32
  18	  34
  18	  43
  18	  46
  18	  55
  18	  59
  19	  21
  19	  22
  19	  25
  19	  50
  19	  51
  20	  21
  20	  30
  20	  34
  20	  36
  20	  39
  20	  42
  20	  43
  20	  47
  20	  48
  20	  49
  20	  52
  20	  58
  21	  22
  21	  24
  21	  25
  21	  31
  21	  33
  21	  34
  21	  35
  21	  39
  21	  41
  21	  48
  21	  49
  21	  52
  22	  23
  22	  30
  22	  35
  22	  38
  22	  40
  22	  41
  22	  42
  22	  47
  22	  55
  22	  56
  22	  58
  22	  59
  23	  24
  23	  25
  23	  28
  23	  30
  23	  34
  23	  36
  23	  47
  23	  48
  23	  52
  23	  55
  23	  59
  24	  25
  24	  26
  24	  27
  24	  30
  24	  38
  24	  39
  24	  44
  24	  50
  25	  30
  25	  32
  25	  33
  25	  35
  25	  37
  25	  39
  25	  41
  25	  42
  25	  44
  25	  47
  25	  57
  25	  59
  26	  28
  26	  30
  26	  32
  26	  37
  26	  44
  26	  45
  26	  46
  26	  49
  26	  56
  27	  31
  27	  35
  27	  36
  27	  40
  27	  44
  27	  56
  28	  33
  28	  34
  28	  37
  28	  45
  28	  47
  28	  48
  28	  51
  29	  35
  29	  37
  29	  39
  29	  43
  29	  49
  29	  54
  29	  57
  29	  58
  29	  59
  30	  32
  30	  38
  30	  41
  30	  47
  30	  54
  30	  58
  31	  33
  31	  34
  31	  36
  31	  43
  31	  44
  31	  45
  31	  57
  32	  36
  32	  37
  32	  38
  32	  43
  32	  49
  32	  50
  32	  52
  32	  54
  32	  55
  32	  58
  33	  44
  33	  50
  33	  53
  33	  58
  33	  59
  34	  37
  34	  39
  34	  45
  34	  46
  34	  47
  34	  54
  34	  59
  35	  36
  35	  43
  35	  44
  35	  48
  35	  50
  35	  52
  35	  53
  35	  54
  35	  56
  35	  58
  36	  38
  36	  40
  36	  46
  36	  49
  36	  53
  36	  55
  37	  38
  37	  40
  37	  41
  37	  42
  37	  44
  37	  45
  37	  47
  37	  49
  37	  51
  37	  53
  37	  57
  37	  58
  38	  41
  38	  42
  38	  46
  38	  52
  38	  55
  39	  43
  39	  44
  39	  48
  39	  53
  39	  58
  40	  41
  40	  43
  40	  55
  40	  57
  40	  59
  41	  42
  41	  45
  41	  46
  41	  47
  41	  51
  41	  53
  41	  58
  41	  59
  42	  46
  42	  47
  42	  50
  42	  57
  43	  46
  43	  48
  43	  49
  43	  50
  43	  51
  44	  45
  44	  49
  44	  50
  44	  53
  44	  54
  44	  55
  45	  47
  45	  50
  45	  53
  45	  56
  46	  49
  46	  50
  46	  54
  46	  56
  46	  59
  47	  55
  47	  56
  47	  59
  48	  52
  48	  54
  48	  56
  49	  56
  49	  57
  50	  51
  50	  57
  51	  55
  52	  54
  53	  54
  53	  57
  54	  59
  55	  56
  55	  57
  56	  59
;
